Running for instance ./models/c101.txt
Generating routes...
Execution time:  2.65724086667  minutes
Academic license - for non-commercial use only
Warning: constraint name "Cliente esta na rota" has a space
Optimize a model with 26 rows, 5000 columns and 33212 nonzeros
Variable types: 0 continuous, 5000 integer (0 binary)
Coefficient statistics:
  Matrix range     [1e+00, 1e+00]
  Objective range  [2e+01, 2e+02]
  Bounds range     [1e+00, 1e+00]
  RHS range        [1e+00, 2e+01]
Found heuristic solution: objective 665.6219350
Presolve removed 0 rows and 123 columns
Presolve time: 0.03s
Presolved: 26 rows, 4877 columns, 32432 nonzeros
Variable types: 0 continuous, 4877 integer (4877 binary)

Root relaxation: objective 2.643866e+02, 109 iterations, 0.01 seconds

    Nodes    |    Current Node    |     Objective Bounds      |     Work
 Expl Unexpl |  Obj  Depth IntInf | Incumbent    BestBd   Gap | It/Node Time

     0     0  264.38664    0   14  665.62193  264.38664  60.3%     -    0s
H    0     0                     321.2515211  264.38664  17.7%     -    0s
H    0     0                     280.0831260  264.38664  5.60%     -    0s
H    0     0                     279.0968430  264.38664  5.27%     -    0s
H    0     0                     264.8701561  264.38664  0.18%     -    0s
     0     0 infeasible    0       264.87016  264.87016  0.00%     -    0s

Cutting planes:
  Zero half: 2

Explored 1 nodes (109 simplex iterations) in 0.06 seconds
Thread count was 8 (of 8 available processors)

Solution count 5: 264.87 279.097 280.083 ... 665.622

Optimal solution found (tolerance 1.00e-04)
Best objective 2.648701561274e+02, best bound 2.648701561274e+02, gap 0.0000%
20 24 25 22
13 10 9
17 18 19 15 16 14
5 3 7 8 11 6 4 2
Distance: 264.870156127
Execution time:  2.6639366  minutes
